NAME          QUICKSORT
ROWS
 N  OBJ
 L  C1
 L  C2
 L  C3
 L  C4
 L  C5
 L  C6
COLUMNS
    X1        C1            1.0
    X2        C1           -1.0   C2            1.0
    X3        C2           -1.0   C3            1.0
    X4        C3           -1.0   C4            1.0
    X5        C4           -1.0   C5            1.0
    X6        C5           -1.0   C6            1.0
    X7        C6           -1.0
RHS
    RHS       C1            0.0   C2            0.0
    RHS       C3            0.0   C4            0.0
    RHS       C5            0.0   C6            0.0
BOUNDS
 UP BND       X1          100.0
 UP BND       X2          100.0
ENDATA
